20 43
2 10 1
2 3 4
2 11 2
2 16 4
10 11 2
10 16 5
3 10 1
3 11 4
3 16 2
11 16 4
16 19 4
19 20 4
12 19 4
12 18 5
12 20 3
8 19 1
8 12 2
8 18 3
8 20 2
18 19 1
18 20 3
4 7 4
4 9 3
4 5 3
4 15 3
4 20 4
7 9 3
7 15 4
9 15 1
5 7 2
5 9 5
5 15 5
6 17 1
6 13 4
6 14 2
6 15 2
1 6 4
1 17 3
1 13 5
1 14 4
13 17 2
13 14 5
14 17 3
